
Gurobi 6.5.2 (linux64) logging started Tue Sep 20 21:24:05 2016


Gurobi 6.5.2 (linux64) logging started Tue Sep 20 21:24:05 2016

Optimize a model with 201 rows, 3565 columns and 7133 nonzeros
Coefficient statistics:
  Matrix range    [1e+00, 2e+00]
  Objective range [1e+00, 1e+02]
  Bounds range    [1e+00, 1e+00]
  RHS range       [1e+00, 1e+00]
Presolve removed 100 rows and 98 columns
Presolve time: 0.01s
Presolved: 101 rows, 3467 columns, 6934 nonzeros
Variable types: 0 continuous, 3467 integer (3467 binary)

Root relaxation: objective 9.500000e+02, 150 iterations, 0.00 seconds

    Nodes    |    Current Node    |     Objective Bounds      |     Work
 Expl Unexpl |  Obj  Depth IntInf | Incumbent    BestBd   Gap | It/Node Time

     0     0  950.00000    0    6          -  950.00000      -     -    0s
     0     0  952.00000    0   12          -  952.00000      -     -    0s
     0     0  952.00000    0    6          -  952.00000      -     -    0s
     0     0  952.00000    0    6          -  952.00000      -     -    0s
     0     2  952.00000    0    6          -  952.00000      -     -    0s
* 3729  2178             130    1016.0000000  954.08333  6.09%   5.7    3s
  4284  2574  998.16667  120   14 1016.00000  954.50000  6.05%   5.7    5s
 10277  7425  974.00000  122    4 1016.00000  955.50000  5.95%   5.0   10s

Cutting planes:
  Gomory: 4
  Zero half: 7
  Lazy constraints: 975

Explored 10678 nodes (53670 simplex iterations) in 10.03 seconds
Thread count was 8 (of 8 available processors)

Time limit reached
Best objective 1.016000000000e+03, best bound 9.560000000000e+02, gap 5.9055%
